c Random CNF formula
p cnf 50 50
2 -13 -45 0
-9 -8 37 0
-9 15 -47 0
38 -29 -35 0
-21 10 36 0
-15 30 -22 0
-34 37 -19 0
-14 49 -31 0
32 22 -29 0
-33 16 23 0
29 -18 -36 0
-48 29 2 0
-25 5 -42 0
-29 -19 44 0
28 -41 -50 0
14 -21 25 0
27 5 -37 0
38 -41 -10 0
-13 50 -20 0
3 -45 -27 0
39 -31 -22 0
-34 -39 -7 0
48 -38 16 0
33 -31 -2 0
-15 -32 -37 0
49 26 46 0
-30 -25 45 0
49 -29 44 0
42 3 -44 0
-47 17 -10 0
16 1 -37 0
-34 21 -14 0
-17 -21 28 0
48 50 -43 0
34 -43 -31 0
19 -30 48 0
-35 -36 -43 0
8 27 -28 0
44 8 9 0
34 -36 6 0
43 7 -40 0
-18 43 45 0
14 -23 4 0
-39 32 -16 0
40 -4 -22 0
-38 26 -41 0
-19 -46 17 0
39 -26 -47 0
24 -19 42 0
-40 14 -11 0
